c Source: TUDataset MUTAG, graph #10
c Original: n=17, m=19
c Augmented: +8 edges, n=20 -> m=27, circuit_rank=8
c Augmented to satisfy Eulerian condition (no parallel edges)
p sp 20
e 2 7
e 5 6
e 15 16
e 1 2
e 10 11
e 6 7
e 2 3
e 11 12
e 13 15
e 12 13
e 3 4
e 8 9
e 9 14
e 5 10
e 13 14
e 15 17
e 4 5
e 6 8
e 9 10
e 1 18
e 2 18
e 5 19
e 10 19
e 6 9
e 13 20
e 15 20
e 16 17
